c Sudoku solution
p cnf 729 0
225 0
253 0
279 0
334 0
341 0
385 0
392 0
412 0
436 0
448 0
493 0
515 0
538 0
556 0
581 0
623 0
631 0
652 0
572 0
676 0
795 0
475 0
862 0
873 0
183 0
313 0
898 0
688 0
945 0
835 0
665 0
155 0
961 0
771 0
933 0
451 0
982 0
994 0
977 0
174 0
378 0
484 0
287 0
232 0
142 0
722 0
737 0
139 0
246 0
264 0
168 0
218 0
291 0
196 0
326 0
928 0
916 0
959 0
766 0
743 0
758 0
714 0
789 0
886 0
524 0
644 0
563 0
847 0
854 0
549 0
467 0
429 0
617 0
597 0
699 0
111 0
127 0
819 0
821 0
357 0
369 0
